# Solution for model PD-Stages
# Objective value = 3.0621943239925166e+01
zigjg[101,102,6] 1
zigjg[101,203,6] 0
zigjg[101,303,6] 0
zigjg[102,101,6] 0
zigjg[102,203,6] 0
zigjg[102,303,6] 1
zigjg[203,101,6] 1
zigjg[203,102,6] 0
zigjg[203,303,6] 0
zigjg[303,101,6] 0
zigjg[303,102,6] 0
zigjg[303,203,6] 1
sig[101,6] 0
sig[102,6] 1
sig[203,6] 3
sig[303,6] 2
digjg[101,102,6] 0
digjg[101,203,6] 10000
digjg[101,303,6] 10000
digjg[102,101,6] 10000
digjg[102,203,6] 10000
digjg[102,303,6] 0
digjg[203,101,6] 0
digjg[203,102,6] 10000
digjg[203,303,6] 10000
digjg[303,101,6] 10000
digjg[303,102,6] 10000
digjg[303,203,6] 0
difigjg[101,102,6,0] 0
difigjg[101,102,6,1] 0
difigjg[101,203,6,0] 7.5895211775113118e+00
difigjg[101,203,6,1] 4.1918814171876306e+00
difigjg[101,303,6,0] 2.5652597564661335e+00
difigjg[101,303,6,1] 3.0778577941498462e+00
difigjg[102,101,6,0] 1.0849399469520463e+01
difigjg[102,101,6,1] 6.3472785589281955e+00
difigjg[102,203,6,0] 1.0154780933977593e+01
difigjg[102,203,6,1] 1.1140236230385199e+00
difigjg[102,303,6,0] 0
difigjg[102,303,6,1] 0
difigjg[203,101,6,0] 0
difigjg[203,101,6,1] 0
difigjg[203,102,6,0] 8.2841397130542340e+00
difigjg[203,102,6,1] 3.2694207647783737e+00
difigjg[203,303,6,0] 1.0849399469520316e+01
difigjg[203,303,6,1] 6.3472785589286040e+00
difigjg[303,101,6,0] 6.9461853554275876e-01
difigjg[303,101,6,1] 7.4613021819655465e+00
difigjg[303,102,6,0] 7.5895211775113864e+00
difigjg[303,102,6,1] 4.1918814171871865e+00
difigjg[303,203,6,0] 0
difigjg[303,203,6,1] 0
pigjg[101,102,6] 0
pigjg[101,203,6] 0
pigjg[101,303,6] 0
pigjg[102,101,6] 0
pigjg[102,203,6] 0
pigjg[102,303,6] 0
pigjg[203,101,6] 0
pigjg[203,102,6] 0
pigjg[203,303,6] 0
pigjg[303,101,6] 0
pigjg[303,102,6] 0
pigjg[303,203,6] 0
Rig[101,6,0] 8.9823589999311153e+01
Rig[101,6,1] 2.0769233014608233e+01
Rig[102,6,0] 8.1539450286256823e+01
Rig[102,6,1] 2.4038653779386593e+01
Rig[203,6,0] 8.9128971463768281e+01
Rig[203,6,1] 2.8230535196572866e+01
Rig[303,6,0] 7.8974190529790718e+01
Rig[303,6,1] 2.7116511573536418e+01
rhoig[101,6] -1.7763568394002505e-15
rhoig[102,6] 9.9999999999999289e-01
rhoig[203,6] 1.1901590823981678e-13
rhoig[303,6] 1
Lig[101,6,0] 8.1539450286256837e+01
Lig[101,6,1] 2.4038653779386571e+01
Lig[102,6,0] 7.8974190529790690e+01
Lig[102,6,1] 2.7116511573536428e+01
Lig[203,6,0] 8.9823589999311054e+01
Lig[203,6,1] 2.0769233014609206e+01
Lig[303,6,0] 8.9128971463768238e+01
Lig[303,6,1] 2.8230535196573779e+01
landaig[101,6] 9.9999999999999822e-01
landaig[102,6] -5.3290705182007514e-15
landaig[203,6] 9.9999999999986677e-01
landaig[303,6] 0
minig[101,6] 1
minig[102,6] 0
minig[203,6] 9.9999999999987710e-01
minig[303,6] 0
maxig[101,6] 0
maxig[102,6] 1
maxig[203,6] 1.2290168882600483e-13
maxig[303,6] 1
entryig[101,6] 1
entryig[102,6] 0
entryig[203,6] 9.9999999999987710e-01
entryig[303,6] 0
muig[101,6] 1
muig[102,6] 1
muig[203,6] 1
muig[303,6] 1
pig[101,6] 1
pig[102,6] 1
pig[203,6] 1
pig[303,6] 1
alphaig[101,6] 1
alphaig[102,6] 1
alphaig[203,6] 1
alphaig[303,6] 1
